1018
1018
1024
1024
1022
1045
961
1073
992
992
992
1042
1042
1009
1009
1055
922
1039
1039
1052
1052
1010
1063
1029
1057
1057
1040
867
989
953
948
953
984
984
984
924
924
924
984
1010
1010
985
985
993
976
1007
1046
1058
1009
954
954
935
954
923
909
939
956
956
956
956
954
954
989
989
962
945
962
1053
1016
947
947
947
992
901
966
966
966
934
917
953
953
953
1006
1006
1006
1006
856
856
1009
977
925
925
925
1019
955
949
949
949
951
1006
1006
929
1006
1027
989
892
892
892
892
937
920
972
916
972
964
964
964
964
937
937
981
958
981
981
981
971
1004
965
916
916
916
916
916
916
864
924
876
962
921
982
1015
956
910
910
910
878
878
878
990
942
942
942
942
942
876
876
923
876
1000
997
975
983
983
983
983
835
929
830
932
932
932
1019
928
946
946
963
963
1005
1023
1039
947
956
1002
940
978
972
972
954
954
749
749
749
749
749
749
952
965
970
958
865
